17	4
27	27	26	25	
0	0	0	0	0	3	2	3	4	
8	6	3	8	5	3	5	6	14	
6	8	10	7	4	1	13	
6	7	10	3	2	3	6	7	17	
8	4	8	6	6	3	8	11	17	
75	9	6	7	5	2	16	17	
225	10	9	6	4	3	9	15	17	
175	8	8	4	2	3	12	17	17	
250	6	5	5	10	3	10	17	17	
225	4	10	6	7	1	14	
225	10	10	4	6	2	17	17	
50	3	1	2	10	2	17	17	
3	4	4	3	1	3	17	17	17	
2	10	4	10	6	1	17	
2	2	5	1	9	2	17	17	
1	1	6	8	6	1	17	
0	0	0	0	0	0	
